c graph2
p edge 15 60
e 1 4
e 2 4
e 3 5
e 4 6
e 5 11
e 6 15
e 7 15
e 8 7
e 9 14
e 10 5
e 11 13
e 12 2
e 13 12
e 14 2
e 15 9
e 15 14
e 1 15
e 10 12
e 3 4
e 13 9
e 6 8
e 6 14
e 1 12
e 12 7
e 15 2
e 14 3
e 3 13
e 10 9
e 11 3
e 8 3
e 9 8
e 11 4
e 6 11
e 6 5
e 11 1
e 2 9
e 2 8
e 12 9
e 12 6
e 5 9
e 7 6
e 12 14
e 8 4
e 15 12
e 12 5
e 13 2
e 10 3
e 11 8
e 7 13
e 12 11
e 4 12
e 4 14
e 5 14
e 8 13
e 13 6
e 2 10
e 7 4
e 5 7
e 5 4
e 2 11
